Route #1: 103 5 90 108 37 63 17 145 144 56 12
Route #2: 139 47 149 4 111 141 135 143 142 147 109 146
Route #3: 92 42 93 64 19 94 88 40 136 41 66 148 87
Route #4: 150 137 44 52 15 107 65 45 91 73 106 125 33 72
Route #5: 71 123 122 124 117 89 39 54 10 49 76 38
Route #6: 126 16 127 53 129 29 128 84 79 21 118 130 50 9 62
Route #7: 133 14 132 6 57 138 102 27 81 1 120 80 22 51 100
Route #8: 68 58 25 95 67 13 134 55 18 110
Route #9: 23 69 7 61 114 99 43 86 97 96 24 98
Route #10: 48 112 60 8 26 113 140 82 31 28 116 70 119 32
Route #11: 3 121 115 36 85 35 59 20 131 83 2
Route #12: 46 77 11 101 74 34 75 105 30 104 78
Cost 1213.67
